NAME : XML100_3325_13
DIMENSION : 101
NB_CLUSTERS : 26
CLUSTERING_ALG : DBSCAN
CLUSTERING_PARAMS : eps(32), minSamples(3)
CLUSTERS
1 0
2 1 2 19 33 65 71 100
3 11 14 42 54 96
4 12 16 23 37 38 41 78 94
5 13 18 21 30 34 40 58 60 80 88
6 9 24 25 47 49 55 67 75 99
7 35 62 72 74 76 91
8 31 64 86 90 95
9 22 45
10 3 87
11 8 10 44
12 20 77 93 98
13 53 66 73 92
14 17 61
15 68 82
16 51 79 85 97
17 4 28 39 81
18 46 57
19 5 29 84
20 26 27 89
21 36 50 52
22 48 83
23 56 59
24 7 70
25 6 15 43 69
26 32 63
EOF